14,5	0,0	18,8	7,4	0,0	0,0	0,0	0,0	0,0	19,8
12,3	13,3	0,0	17,2	7,1	0,0	0,0	5,5	0,0	0,0
0,0	0,0	17,8	0,0	9,1	5,3	0,0	0,0	17,1	0,0
7,5	0,0	8,0	0,0	0,0	0,0	6,4	0,0	0,0	0,0
0,0	11,1	0,0	18,6	10,9	0,0	0,0	14,8	0,0	0,0
0,0	11,8	8,1	0,0	11,9	7,1	0,0	0,0	11,1	0,0
0,0	14,3	0,0	17,7	0,0	0,0	14,0	0,0	0,0	8,3
18,5	0,0	10,2	0,0	0,0	0,0	0,0	0,0	0,0	7,3
0,0	5,6	0,0	17,2	14,4	0,0	0,0	11,3	0,0	0,0
0,0	0,0	10,0	0,0	0,0	8,1	14,9	0,0	0,0	5,9
0,0	18,6	0,0	0,0	15,2	0,0	8,3	0,0	11,0	7,5
19,7	0,0	19,7	0,0	5,9	0,0	14,3	15,9	11,5	0,0
0,0	6,0	0,0	0,0	0,0	19,6	0,0	14,1	19,6	18,5
5,6	10,4	10,9	0,0	0,0	8,5	0,0	7,8	18,2	0,0
19,9	0,0	14,3	0,0	14,1	19,0	7,0	5,2	0,0	0,0
0,0	19,2	0,0	5,5	0,0	8,0	0,0	10,2	0,0	0,0
8,1	0,0	16,5	11,0	6,9	0,0	0,0	11,5	0,0	0,0
0,0	0,0	17,6	0,0	0,0	15,0	10,8	0,0	13,8	8,0
17,8	0,0	0,0	13,6	8,9	8,7	12,4	15,2	0,0	16,8
0,0	8,7	0,0	15,8	0,0	0,0	16,4	0,0	12,1	16,9
									
3,6	4,2	3,0	2,8	3,3	5,0	4,2	2,7	5,0	3,9
